
Gurobi 5.6.3 (linux64) logging started Sat Nov 15 00:07:57 2014


Gurobi 5.6.3 (linux64) logging started Sat Nov 15 00:08:39 2014


Gurobi 5.6.3 (linux64) logging started Sat Nov 15 00:08:53 2014


Gurobi 5.6.3 (linux64) logging started Sat Nov 15 00:10:08 2014


Gurobi 5.6.3 (linux64) logging started Sat Nov 15 00:18:02 2014


Gurobi 5.6.3 (linux64) logging started Sat Nov 15 00:19:33 2014


Gurobi 5.6.3 (linux64) logging started Sat Nov 15 00:45:51 2014


Gurobi 5.6.3 (linux64) logging started Sat Nov 15 00:47:17 2014


Gurobi 5.6.3 (linux64) logging started Sat Nov 15 00:48:54 2014


Gurobi 5.6.3 (linux64) logging started Sat Nov 15 00:50:09 2014


Gurobi 5.6.3 (linux64) logging started Sat Nov 15 00:51:46 2014


Gurobi 5.6.3 (linux64) logging started Sat Nov 15 00:52:31 2014


Gurobi 5.6.3 (linux64) logging started Sat Nov 15 00:53:46 2014


Gurobi 5.6.3 (linux64) logging started Sat Nov 15 00:54:40 2014


Gurobi 5.6.3 (linux64) logging started Sat Nov 15 05:27:55 2014


Gurobi 5.6.3 (linux64) logging started Sat Nov 15 05:28:35 2014


Gurobi 5.6.3 (linux64) logging started Sat Nov 15 05:29:45 2014


Gurobi 5.6.3 (linux64) logging started Sat Nov 15 05:30:52 2014


Gurobi 5.6.3 (linux64) logging started Sat Nov 15 05:31:48 2014


Gurobi 5.6.3 (linux64) logging started Sat Nov 15 05:32:21 2014


Gurobi 5.6.3 (linux64) logging started Sat Nov 15 05:33:47 2014


Gurobi 5.6.3 (linux64) logging started Sat Nov 15 05:34:28 2014


Gurobi 5.6.3 (linux64) logging started Sat Nov 15 05:35:06 2014


Gurobi 5.6.3 (linux64) logging started Sat Nov 15 05:35:54 2014


Gurobi 5.6.3 (linux64) logging started Sat Nov 15 05:36:52 2014


Gurobi 5.6.3 (linux64) logging started Sat Nov 15 05:37:04 2014


Gurobi 5.6.3 (linux64) logging started Sat Nov 15 05:39:21 2014


Gurobi 5.6.3 (linux64) logging started Sat Nov 15 05:41:14 2014


Gurobi 5.6.3 (linux64) logging started Sat Nov 15 05:42:18 2014


Gurobi 5.6.3 (linux64) logging started Sat Nov 15 05:43:33 2014


Gurobi 5.6.3 (linux64) logging started Sat Nov 15 05:54:18 2014


Gurobi 5.6.3 (linux64) logging started Sat Nov 15 07:49:36 2014


Gurobi 5.6.3 (linux64) logging started Sat Nov 15 07:50:08 2014


Gurobi 5.6.3 (linux64) logging started Sat Nov 15 07:50:25 2014


Gurobi 5.6.3 (linux64) logging started Sat Nov 15 07:53:30 2014


Gurobi 5.6.3 (linux64) logging started Sat Nov 15 07:53:44 2014


Gurobi 5.6.3 (linux64) logging started Sat Nov 15 08:12:40 2014


Gurobi 5.6.3 (linux64) logging started Sat Nov 15 08:20:40 2014


Gurobi 5.6.3 (linux64) logging started Sat Nov 15 08:21:10 2014


Gurobi 5.6.3 (linux64) logging started Sat Nov 15 08:29:11 2014


Gurobi 5.6.3 (linux64) logging started Sat Nov 15 08:29:26 2014


Gurobi 5.6.3 (linux64) logging started Sat Nov 15 08:29:49 2014


Gurobi 5.6.3 (linux64) logging started Sat Nov 15 08:31:47 2014


Gurobi 5.6.3 (linux64) logging started Sat Nov 15 08:34:02 2014


Gurobi 5.6.3 (linux64) logging started Sat Nov 15 08:39:20 2014


Gurobi 5.6.3 (linux64) logging started Sat Nov 15 08:39:39 2014


Gurobi 5.6.3 (linux64) logging started Sat Nov 15 08:41:37 2014


Gurobi 5.6.3 (linux64) logging started Sat Nov 15 08:41:59 2014


Gurobi 5.6.3 (linux64) logging started Sat Nov 15 08:43:09 2014


Gurobi 5.6.3 (linux64) logging started Sat Nov 15 08:43:29 2014


Gurobi 5.6.3 (linux64) logging started Sat Nov 15 08:44:01 2014


Gurobi 5.6.3 (linux64) logging started Sat Nov 15 08:44:53 2014


Gurobi 5.6.3 (linux64) logging started Sat Nov 15 08:45:37 2014


Gurobi 5.6.3 (linux64) logging started Sat Nov 15 08:46:41 2014


Gurobi 5.6.3 (linux64) logging started Sat Nov 15 08:48:03 2014


Gurobi 5.6.3 (linux64) logging started Sat Nov 15 08:48:25 2014


Gurobi 5.6.3 (linux64) logging started Sat Nov 15 10:02:43 2014


Gurobi 5.6.3 (linux64) logging started Sat Nov 15 10:03:38 2014


Gurobi 5.6.3 (linux64) logging started Sat Nov 15 10:56:00 2014


Gurobi 5.6.3 (linux64) logging started Sat Nov 15 10:56:16 2014


Gurobi 5.6.3 (linux64) logging started Sat Nov 15 10:57:12 2014


Gurobi 5.6.3 (linux64) logging started Sat Nov 15 10:57:27 2014


Gurobi 5.6.3 (linux64) logging started Sat Nov 15 10:58:07 2014


Gurobi 5.6.3 (linux64) logging started Sat Nov 15 10:58:34 2014


Gurobi 5.6.3 (linux64) logging started Sat Nov 15 10:59:37 2014


Gurobi 5.6.3 (linux64) logging started Sun Nov 16 16:35:36 2014


Gurobi 5.6.3 (linux64) logging started Sun Nov 16 16:37:27 2014


Gurobi 5.6.3 (linux64) logging started Sun Nov 16 16:38:16 2014


Gurobi 5.6.3 (linux64) logging started Sun Nov 16 17:47:01 2014


Gurobi 5.6.3 (linux64) logging started Sun Nov 16 17:59:52 2014


Gurobi 5.6.3 (linux64) logging started Sun Nov 16 18:01:02 2014


Gurobi 5.6.3 (linux64) logging started Sun Nov 16 18:02:06 2014


Gurobi 5.6.3 (linux64) logging started Sun Nov 16 18:32:14 2014


Gurobi 5.6.3 (linux64) logging started Sun Nov 16 18:33:15 2014


Gurobi 5.6.3 (linux64) logging started Sun Nov 16 18:37:36 2014


Gurobi 5.6.3 (linux64) logging started Sun Nov 16 18:38:18 2014


Gurobi 5.6.3 (linux64) logging started Sun Nov 16 18:38:41 2014


Gurobi 5.6.3 (linux64) logging started Sun Nov 16 18:39:40 2014


Gurobi 5.6.3 (linux64) logging started Sun Nov 16 18:39:49 2014


Gurobi 5.6.3 (linux64) logging started Sun Nov 16 18:40:22 2014


Gurobi 5.6.3 (linux64) logging started Sun Nov 16 18:40:45 2014


Gurobi 5.6.3 (linux64) logging started Sun Nov 16 19:01:20 2014


Gurobi 5.6.3 (linux64) logging started Sun Nov 16 19:01:43 2014


Gurobi 5.6.3 (linux64) logging started Sun Nov 16 19:02:32 2014


Gurobi 5.6.3 (linux64) logging started Sun Nov 16 19:11:48 2014


Gurobi 5.6.3 (linux64) logging started Sun Nov 16 19:12:15 2014


Gurobi 5.6.3 (linux64) logging started Sun Nov 16 19:20:02 2014


Gurobi 5.6.3 (linux64) logging started Sun Nov 16 19:22:52 2014


Gurobi 5.6.3 (linux64) logging started Sun Nov 16 19:23:09 2014


Gurobi 5.6.3 (linux64) logging started Sun Nov 16 19:35:26 2014


Gurobi 5.6.3 (linux64) logging started Sun Nov 16 19:36:08 2014


Gurobi 5.6.3 (linux64) logging started Sun Nov 16 19:37:23 2014


Gurobi 5.6.3 (linux64) logging started Sun Nov 16 19:38:01 2014


Gurobi 5.6.3 (linux64) logging started Sun Nov 16 19:40:02 2014


Gurobi 5.6.3 (linux64) logging started Sun Nov 16 19:42:41 2014


Gurobi 5.6.3 (linux64) logging started Sun Nov 16 19:43:20 2014


Gurobi 5.6.3 (linux64) logging started Sun Nov 16 19:48:33 2014


Gurobi 5.6.3 (linux64) logging started Sun Nov 16 19:49:20 2014


Gurobi 5.6.3 (linux64) logging started Sun Nov 16 19:51:40 2014


Gurobi 5.6.3 (linux64) logging started Sun Nov 16 19:53:15 2014


Gurobi 5.6.3 (linux64) logging started Sun Nov 16 19:53:55 2014


Gurobi 5.6.3 (linux64) logging started Sun Nov 16 22:36:12 2014


Gurobi 5.6.3 (linux64) logging started Sun Nov 16 22:36:38 2014


Gurobi 5.6.3 (linux64) logging started Sun Nov 16 22:36:59 2014


Gurobi 5.6.3 (linux64) logging started Sun Nov 16 22:37:10 2014


Gurobi 5.6.3 (linux64) logging started Sun Nov 16 23:02:22 2014


Gurobi 5.6.3 (linux64) logging started Sun Nov 16 23:02:58 2014


Gurobi 5.6.3 (linux64) logging started Sun Nov 16 23:03:25 2014


Gurobi 5.6.3 (linux64) logging started Sun Nov 16 23:04:17 2014


Gurobi 5.6.3 (linux64) logging started Tue Nov 18 07:29:52 2014


Gurobi 5.6.3 (linux64) logging started Tue Nov 18 07:30:29 2014


Gurobi 5.6.3 (linux64) logging started Tue Nov 18 07:33:11 2014


Gurobi 5.6.3 (linux64) logging started Tue Nov 18 07:33:56 2014


Gurobi 5.6.3 (linux64) logging started Tue Nov 18 07:34:17 2014


Gurobi 5.6.3 (linux64) logging started Tue Nov 18 07:34:53 2014


Gurobi 5.6.3 (linux64) logging started Tue Nov 18 07:52:31 2014


Gurobi 5.6.3 (linux64) logging started Tue Nov 18 08:10:34 2014


Gurobi 5.6.3 (linux64) logging started Tue Nov 18 08:10:54 2014


Gurobi 5.6.3 (linux64) logging started Tue Nov 18 08:11:18 2014


Gurobi 5.6.3 (linux64) logging started Tue Nov 18 08:14:01 2014


Gurobi 5.6.3 (linux64) logging started Fri Nov 21 21:36:06 2014


Gurobi 5.6.3 (linux64) logging started Fri Nov 21 21:37:32 2014


Gurobi 5.6.3 (linux64) logging started Fri Nov 21 21:40:19 2014


Gurobi 5.6.3 (linux64) logging started Tue Nov 25 10:36:48 2014


Gurobi 5.6.3 (linux64) logging started Tue Nov 25 20:53:02 2014


Gurobi 5.6.3 (linux64) logging started Tue Nov 25 20:53:19 2014


Gurobi 5.6.3 (linux64) logging started Tue Nov 25 20:54:49 2014


Gurobi 5.6.3 (linux64) logging started Tue Nov 25 22:02:51 2014


Gurobi 5.6.3 (linux64) logging started Tue Nov 25 22:03:04 2014


Gurobi 5.6.3 (linux64) logging started Tue Nov 25 22:12:20 2014


Gurobi 5.6.3 (linux64) logging started Tue Nov 25 22:13:40 2014


Gurobi 5.6.3 (linux64) logging started Tue Nov 25 22:32:30 2014


Gurobi 5.6.3 (linux64) logging started Tue Nov 25 22:36:08 2014


Gurobi 5.6.3 (linux64) logging started Wed Nov 26 21:56:27 2014


Gurobi 5.6.3 (linux64) logging started Wed Nov 26 22:01:42 2014


Gurobi 5.6.3 (linux64) logging started Wed Nov 26 22:02:44 2014


Gurobi 5.6.3 (linux64) logging started Wed Nov 26 22:09:43 2014


Gurobi 5.6.3 (linux64) logging started Wed Nov 26 22:18:15 2014


Gurobi 5.6.3 (linux64) logging started Wed Nov 26 22:18:40 2014


Gurobi 5.6.3 (linux64) logging started Wed Nov 26 22:19:04 2014


Gurobi 5.6.3 (linux64) logging started Wed Nov 26 22:19:32 2014


Gurobi 5.6.3 (linux64) logging started Wed Nov 26 22:19:57 2014


Gurobi 5.6.3 (linux64) logging started Wed Nov 26 22:20:08 2014


Gurobi 5.6.3 (linux64) logging started Wed Nov 26 22:20:23 2014


Gurobi 5.6.3 (linux64) logging started Wed Nov 26 22:20:43 2014


Gurobi 5.6.3 (linux64) logging started Wed Nov 26 22:21:42 2014


Gurobi 5.6.3 (linux64) logging started Wed Nov 26 22:22:11 2014


Gurobi 5.6.3 (linux64) logging started Wed Nov 26 22:23:12 2014


Gurobi 5.6.3 (linux64) logging started Wed Nov 26 22:23:22 2014


Gurobi 5.6.3 (linux64) logging started Wed Nov 26 22:24:07 2014


Gurobi 5.6.3 (linux64) logging started Wed Nov 26 22:24:24 2014


Gurobi 5.6.3 (linux64) logging started Wed Nov 26 22:24:53 2014


Gurobi 5.6.3 (linux64) logging started Wed Nov 26 22:25:33 2014


Gurobi 5.6.3 (linux64) logging started Wed Nov 26 22:26:08 2014


Gurobi 5.6.3 (linux64) logging started Wed Nov 26 22:26:32 2014


Gurobi 5.6.3 (linux64) logging started Wed Nov 26 22:26:58 2014


Gurobi 5.6.3 (linux64) logging started Wed Nov 26 22:27:34 2014


Gurobi 5.6.3 (linux64) logging started Wed Nov 26 22:27:51 2014


Gurobi 5.6.3 (linux64) logging started Wed Nov 26 22:28:30 2014


Gurobi 5.6.3 (linux64) logging started Wed Nov 26 22:28:57 2014


Gurobi 5.6.3 (linux64) logging started Wed Nov 26 22:33:32 2014


Gurobi 5.6.3 (linux64) logging started Wed Nov 26 22:33:48 2014


Gurobi 5.6.3 (linux64) logging started Wed Nov 26 22:35:55 2014


Gurobi 5.6.3 (linux64) logging started Wed Nov 26 22:37:00 2014


Gurobi 5.6.3 (linux64) logging started Wed Nov 26 22:37:43 2014


Gurobi 5.6.3 (linux64) logging started Wed Nov 26 22:38:58 2014


Gurobi 5.6.3 (linux64) logging started Wed Nov 26 22:42:00 2014


Gurobi 5.6.3 (linux64) logging started Wed Nov 26 22:45:21 2014


Gurobi 5.6.3 (linux64) logging started Wed Nov 26 22:46:56 2014


Gurobi 5.6.3 (linux64) logging started Wed Nov 26 23:22:37 2014


Gurobi 5.6.3 (linux64) logging started Wed Nov 26 23:23:12 2014


Gurobi 5.6.3 (linux64) logging started Wed Nov 26 23:24:18 2014


Gurobi 5.6.3 (linux64) logging started Wed Nov 26 23:28:34 2014


Gurobi 5.6.3 (linux64) logging started Thu Nov 27 00:12:18 2014


Gurobi 5.6.3 (linux64) logging started Thu Nov 27 00:13:23 2014


Gurobi 5.6.3 (linux64) logging started Thu Nov 27 00:14:03 2014


Gurobi 5.6.3 (linux64) logging started Thu Nov 27 00:14:19 2014


Gurobi 5.6.3 (linux64) logging started Thu Nov 27 00:14:50 2014


Gurobi 5.6.3 (linux64) logging started Thu Nov 27 00:15:13 2014


Gurobi 5.6.3 (linux64) logging started Thu Nov 27 00:15:51 2014


Gurobi 5.6.3 (linux64) logging started Thu Nov 27 00:16:20 2014


Gurobi 5.6.3 (linux64) logging started Thu Nov 27 00:17:11 2014


Gurobi 5.6.3 (linux64) logging started Thu Nov 27 00:17:26 2014


Gurobi 5.6.3 (linux64) logging started Thu Nov 27 00:17:37 2014


Gurobi 5.6.3 (linux64) logging started Thu Nov 27 00:18:27 2014


Gurobi 5.6.3 (linux64) logging started Thu Nov 27 00:18:48 2014


Gurobi 5.6.3 (linux64) logging started Thu Nov 27 00:19:19 2014


Gurobi 5.6.3 (linux64) logging started Thu Nov 27 00:19:45 2014


Gurobi 5.6.3 (linux64) logging started Thu Nov 27 00:24:39 2014


Gurobi 5.6.3 (linux64) logging started Thu Nov 27 00:27:00 2014


Gurobi 5.6.3 (linux64) logging started Thu Nov 27 00:27:38 2014


Gurobi 5.6.3 (linux64) logging started Thu Nov 27 00:28:11 2014


Gurobi 5.6.3 (linux64) logging started Thu Nov 27 00:30:50 2014


Gurobi 5.6.3 (linux64) logging started Thu Nov 27 00:34:49 2014


Gurobi 5.6.3 (linux64) logging started Thu Nov 27 00:37:21 2014


Gurobi 5.6.3 (linux64) logging started Thu Nov 27 00:38:48 2014


Gurobi 5.6.3 (linux64) logging started Thu Nov 27 00:50:55 2014


Gurobi 5.6.3 (linux64) logging started Thu Nov 27 01:07:20 2014


Gurobi 5.6.3 (linux64) logging started Sun May 10 09:13:17 2015


Gurobi 5.6.3 (linux64) logging started Sun May 10 18:05:34 2015


Gurobi 5.6.3 (linux64) logging started Sun May 10 18:05:56 2015

